12° run output:
{
    "Function": "ClusterA500.tsp",
    "Problem dimension": [
        51,
        450,
        106,
        250,
        128,
        213,
        369,
        99,
        428,
        488,
        296,
        107,
        363,
        242,
        315,
        376,
        28,
        168,
        319,
        367,
        194,
        347,
        373,
        65,
        42,
        94,
        487,
        446,
        153,
        225,
        188,
        297,
        482,
        60,
        294,
        35,
        437,
        321,
        83,
        92,
        56,
        439,
        70,
        187,
        22,
        302,
        470,
        354,
        214,
        180,
        109,
        394,
        85,
        421,
        129,
        344,
        436,
        407,
        408,
        335,
        460,
        31,
        313,
        329,
        307,
        160,
        368,
        404,
        82,
        399,
        144,
        356,
        281,
        234,
        118,
        101,
        3,
        423,
        47,
        328,
        176,
        67,
        445,
        173,
        15,
        389,
        81,
        221,
        263,
        361,
        227,
        207,
        68,
        119,
        59,
        146,
        441,
        265,
        87,
        366,
        292,
        86,
        375,
        136,
        139,
        69,
        226,
        91,
        383,
        434,
        12,
        326,
        461,
        337,
        431,
        453,
        285,
        325,
        108,
        1,
        200,
        309,
        312,
        392,
        2,
        284,
        256,
        498,
        338,
        127,
        124,
        196,
        98,
        486,
        80,
        452,
        13,
        231,
        352,
        219,
        16,
        451,
        478,
        259,
        380,
        398,
        364,
        249,
        400,
        220,
        151,
        217,
        150,
        163,
        202,
        359,
        306,
        477,
        278,
        7,
        185,
        286,
        349,
        183,
        427,
        159,
        485,
        62,
        218,
        103,
        64,
        100,
        190,
        198,
        130,
        232,
        111,
        448,
        246,
        351,
        30,
        260,
        409,
        58,
        204,
        402,
        473,
        29,
        215,
        320,
        230,
        131,
        282,
        53,
        262,
        66,
        378,
        174,
        135,
        371,
        8,
        209,
        274,
        253,
        497,
        247,
        334,
        36,
        331,
        357,
        438,
        341,
        310,
        295,
        195,
        268,
        72,
        167,
        458,
        115,
        288,
        291,
        418,
        279,
        54,
        257,
        432,
        397,
        74,
        442,
        181,
        41,
        346,
        17,
        244,
        199,
        75,
        333,
        322,
        208,
        126,
        48,
        492,
        178,
        117,
        143,
        489,
        170,
        5,
        152,
        114,
        89,
        447,
        52,
        420,
        251,
        435,
        339,
        499,
        405,
        164,
        415,
        239,
        116,
        348,
        133,
        411,
        350,
        27,
        463,
        465,
        496,
        24,
        403,
        370,
        255,
        171,
        410,
        479,
        88,
        49,
        134,
        32,
        372,
        300,
        50,
        11,
        474,
        269,
        138,
        132,
        270,
        142,
        271,
        77,
        468,
        471,
        165,
        96,
        494,
        203,
        266,
        19,
        433,
        484,
        140,
        358,
        413,
        148,
        245,
        241,
        443,
        57,
        393,
        175,
        97,
        243,
        353,
        224,
        481,
        137,
        390,
        34,
        360,
        429,
        10,
        43,
        308,
        123,
        467,
        469,
        419,
        395,
        112,
        252,
        440,
        305,
        336,
        323,
        314,
        110,
        444,
        46,
        240,
        235,
        158,
        193,
        355,
        76,
        261,
        55,
        149,
        381,
        44,
        317,
        424,
        236,
        39,
        25,
        222,
        301,
        172,
        382,
        304,
        483,
        464,
        79,
        287,
        23,
        311,
        20,
        316,
        377,
        21,
        318,
        166,
        155,
        205,
        162,
        387,
        169,
        90,
        293,
        37,
        26,
        362,
        192,
        237,
        385,
        417,
        154,
        426,
        141,
        480,
        258,
        210,
        476,
        342,
        216,
        120,
        290,
        104,
        197,
        228,
        121,
        457,
        303,
        179,
        78,
        332,
        254,
        145,
        161,
        401,
        365,
        289,
        38,
        229,
        416,
        340,
        223,
        272,
        6,
        61,
        4,
        84,
        95,
        299,
        267,
        495,
        113,
        201,
        493,
        273,
        462,
        105,
        147,
        233,
        459,
        186,
        454,
        425,
        206,
        327,
        422,
        102,
        466,
        177,
        491,
        330,
        276,
        455,
        374,
        277,
        472,
        264,
        33,
        9,
        430,
        283,
        414,
        189,
        191,
        184,
        212,
        182,
        63,
        345,
        0,
        490,
        449,
        388,
        71,
        275,
        40,
        122,
        379,
        18,
        156,
        456,
        248,
        280,
        298,
        93,
        73,
        391,
        343,
        125,
        238,
        45,
        211,
        157,
        386,
        396,
        14,
        406,
        412,
        384,
        475,
        324
    ],
    "Global Optimum": 0,
    "Algorithm": "Genetic algorithm",
    "Parameters": {
        "population": 30,
        "offspring": 30,
        "mutation probability": 0.002,
        "crossover probability": 0.9
    },
    "Fitness": 597358,
    "Solution": [
        51,
        450,
        106,
        250,
        128,
        213,
        369,
        99,
        428,
        488,
        296,
        107,
        363,
        242,
        315,
        376,
        28,
        168,
        319,
        367,
        194,
        347,
        373,
        65,
        42,
        94,
        487,
        446,
        153,
        225,
        188,
        297,
        482,
        60,
        294,
        35,
        437,
        321,
        83,
        92,
        56,
        439,
        70,
        187,
        22,
        302,
        470,
        354,
        214,
        180,
        109,
        394,
        85,
        421,
        129,
        344,
        436,
        407,
        408,
        335,
        460,
        31,
        313,
        329,
        307,
        160,
        368,
        404,
        82,
        399,
        144,
        356,
        281,
        234,
        118,
        101,
        3,
        423,
        47,
        328,
        176,
        67,
        445,
        173,
        15,
        389,
        81,
        221,
        263,
        361,
        227,
        207,
        68,
        119,
        59,
        146,
        441,
        265,
        87,
        366,
        292,
        86,
        375,
        136,
        139,
        69,
        226,
        91,
        383,
        434,
        12,
        326,
        461,
        337,
        431,
        453,
        285,
        325,
        108,
        1,
        200,
        309,
        312,
        392,
        2,
        284,
        256,
        498,
        338,
        127,
        124,
        196,
        98,
        486,
        80,
        452,
        13,
        231,
        352,
        219,
        16,
        451,
        478,
        259,
        380,
        398,
        364,
        249,
        400,
        220,
        151,
        217,
        150,
        163,
        202,
        359,
        306,
        477,
        278,
        7,
        185,
        286,
        349,
        183,
        427,
        159,
        485,
        62,
        218,
        103,
        64,
        100,
        190,
        198,
        130,
        232,
        111,
        448,
        246,
        351,
        30,
        260,
        409,
        58,
        204,
        402,
        473,
        29,
        215,
        320,
        230,
        131,
        282,
        53,
        262,
        66,
        378,
        174,
        135,
        371,
        8,
        209,
        274,
        253,
        497,
        247,
        334,
        36,
        331,
        357,
        438,
        341,
        310,
        295,
        195,
        268,
        72,
        167,
        458,
        115,
        288,
        291,
        418,
        279,
        54,
        257,
        432,
        397,
        74,
        442,
        181,
        41,
        346,
        17,
        244,
        199,
        75,
        333,
        322,
        208,
        126,
        48,
        492,
        178,
        117,
        143,
        489,
        170,
        5,
        152,
        114,
        89,
        447,
        52,
        420,
        251,
        435,
        339,
        499,
        405,
        164,
        415,
        239,
        116,
        348,
        133,
        411,
        350,
        27,
        463,
        465,
        496,
        24,
        403,
        370,
        255,
        171,
        410,
        479,
        88,
        49,
        134,
        32,
        372,
        300,
        50,
        11,
        474,
        269,
        138,
        132,
        270,
        142,
        271,
        77,
        468,
        471,
        165,
        96,
        494,
        203,
        266,
        19,
        433,
        484,
        140,
        358,
        413,
        148,
        245,
        241,
        443,
        57,
        393,
        175,
        97,
        243,
        353,
        224,
        481,
        137,
        390,
        34,
        360,
        429,
        10,
        43,
        308,
        123,
        467,
        469,
        419,
        395,
        112,
        252,
        440,
        305,
        336,
        323,
        314,
        110,
        444,
        46,
        240,
        235,
        158,
        193,
        355,
        76,
        261,
        55,
        149,
        381,
        44,
        317,
        424,
        236,
        39,
        25,
        222,
        301,
        172,
        382,
        304,
        483,
        464,
        79,
        287,
        23,
        311,
        20,
        316,
        377,
        21,
        318,
        166,
        155,
        205,
        162,
        387,
        169,
        90,
        293,
        37,
        26,
        362,
        192,
        237,
        385,
        417,
        154,
        426,
        141,
        480,
        258,
        210,
        476,
        342,
        216,
        120,
        290,
        104,
        197,
        228,
        121,
        457,
        303,
        179,
        78,
        332,
        254,
        145,
        161,
        401,
        365,
        289,
        38,
        229,
        416,
        340,
        223,
        272,
        6,
        61,
        4,
        84,
        95,
        299,
        267,
        495,
        113,
        201,
        493,
        273,
        462,
        105,
        147,
        233,
        459,
        186,
        454,
        425,
        206,
        327,
        422,
        102,
        466,
        177,
        491,
        330,
        276,
        455,
        374,
        277,
        472,
        264,
        33,
        9,
        430,
        283,
        414,
        189,
        191,
        184,
        212,
        182,
        63,
        345,
        0,
        490,
        449,
        388,
        71,
        275,
        40,
        122,
        379,
        18,
        156,
        456,
        248,
        280,
        298,
        93,
        73,
        391,
        343,
        125,
        238,
        45,
        211,
        157,
        386,
        396,
        14,
        406,
        412,
        384,
        475,
        324
    ],
    "Nb of functions evaluations": 400020,
    "Computational time in seconds": 1771.6104762554169,
    "Stopping criterion in evaluations": 400000
}